43 74 41 27 92 72 79 1 61 18 11 58 81 42 82 31 17 36 48 37 46 30 8 49 51 25 68 13 33 96 44 84 71 21 23 50 70 90 80 0 10 91 32 93 77 62 63 45 15 73 89 85 57 9 95 26 34 69 78 39 7 59 20 64 19 55 54 94 14 86 99 28 24 83 35 98 65 66 75 56 47 53 2 38 5 22 40 76 87 60 29 97 3 6 67 12 16 88 4 52 

